LAMMPS (29 Aug 2024 - Update 1)
# 3d protein simulation

units real

timestep 2

dimension	3

boundary s s s
#boundary p p p

neighbor	10 bin
neigh_modify	delay 5

atom_modify sort 0 0.0

special_bonds fene

atom_style	awsemmd

bond_style harmonic

pair_style vexcluded 2 3.5 3.5

read_data data.2l8x
Reading data file ...
  orthogonal box = (-200 -200 -200) to (200 200 200)
  1 by 1 by 1 MPI processor grid
  reading atoms ...
  126 atoms
  scanning bonds ...
  3 = max bonds/atom
  orthogonal box = (-200.04 -200.04 -200.04) to (200.04 200.04 200.04)
  1 by 1 by 1 MPI processor grid
  reading bonds ...
  164 bonds
Finding 1-2 1-3 1-4 neighbors ...
  special bond factors lj:    0        1        1       
  special bond factors coul:  0        1        1       
     5 = max # of 1-2 neighbors
     5 = max # of special neighbors
  special bonds CPU = 0.000 seconds
  read_data CPU = 0.010 seconds

pair_coeff * * 0.0
pair_coeff 1 1 20.0 3.5 4.5
pair_coeff 1 4 20.0 3.5 4.5
pair_coeff 4 4 20.0 3.5 4.5
pair_coeff 3 3 20.0 3.5 3.5


velocity	all create 300.0 2349852

group		alpha_carbons id 1 4 7 10 13 16 19 22 25 28 31 34 37 40 43 46 49 52 55 58 61 64 67 70 73 76 79 82 85 88 91 94 97 100 103 106 109 112 115 118 121 124
42 atoms in group alpha_carbons

group		beta_atoms id 3 6 9 12 15 18 21 24 27 30 33 36 39 42 45 48 51 54 57 60 63 66 69 72 75 78 81 84 87 90 93 96 99 102 105 108 111 114 117 120 123 126
42 atoms in group beta_atoms

group		oxygens id 2 5 8 11 14 17 20 23 26 29 32 35 38 41 44 47 50 53 56 59 62 65 68 71 74 77 80 83 86 89 92 95 98 101 104 107 110 113 116 119 122 125
42 atoms in group oxygens


fix		  1 all nvt temp 300.0 300.0 100.0
fix		  2 alpha_carbons backbone beta_atoms oxygens fix_backbone_coeff.data 2l8x.seq
Chain flag on
Chi flag on
Rama flag on
Rama_P flag on
SSWeight flag on
ABC flag on
Dssp_Hdrgn flag on
P_AP flag on
Water flag on
Burial flag on
Helix flag on

Fix backbone Pair List cutoff 15.0000

thermo		1000
dump		1 all atom 1000 dump.lammpstrj

dump_modify	1 sort id

reset_timestep	0
run		130000

CITE-CITE-CITE-CITE-CITE-CITE-CITE-CITE-CITE-CITE-CITE-CITE-CITE

Your simulation uses code contributions which should be cited:

- Type Label Framework: https://doi.org/10.1021/acs.jpcb.3c08419

@Article{Gissinger24,
 author = {Jacob R. Gissinger, Ilia Nikiforov, Yaser Afshar, Brendon Waters, Moon-ki Choi, Daniel S. Karls, Alexander Stukowski, Wonpil Im, Hendrik Heinz, Axel Kohlmeyer, and Ellad B. Tadmor},
 title = {Type Label Framework for Bonded Force Fields in LAMMPS},
 journal = {J. Phys. Chem. B},
 year =    2024,
 volume =  128,
 number =  13,
 pages =   {3282â€“-3297}
}

CITE-CITE-CITE-CITE-CITE-CITE-CITE-CITE-CITE-CITE-CITE-CITE-CITE

Generated 0 of 10 mixed pair_coeff terms from geometric mixing rule
Neighbor list info ...
  update: every = 1 steps, delay = 5 steps, check = yes
  max neighbors/atom: 2000, page size: 100000
  master list distance cutoff = 14.5
  ghost atom cutoff = 25
  binsize = 7.25, bins = 4 3 5
  2 neighbor lists, perpetual/occasional/extra = 2 0 0
  (1) pair vexcluded, perpetual
      attributes: half, newton on
      pair build: half/bin/newton
      stencil: half/bin/3d
      bin: standard
  (2) fix backbone, perpetual
      attributes: half, newton on, cut 25
      pair build: half/bin/newton
      stencil: half/bin/3d
      bin: standard
Per MPI rank memory allocation (min/avg/max) = 7.184 | 7.184 | 7.184 Mbytes
   Step          Temp          E_pair         E_mol          TotEng         Press          Volume    
         0   300            126.44986      629.18489      867.41513     -15924.219      15093.557    
      1000   292.43673      2.7721856      68.987428      180.72191     -122.04948      15093.557    
      2000   313.70078      1.5654773      69.179012      187.6298      -1039.0721      15093.557    
      3000   312.20332      1.8207351      57.735922      175.88401      642.86617      14193.249    
      4000   327.48585      2.8308773      53.127902      177.98042      402.50531      14792.453    
      5000   263.07633      0.87797653     53.739507      152.64005     -682.23173      13975.4      
      6000   326.07618      4.7441701      63.15398       189.39454      1443.3529      12754.149    
      7000   307.9844       3.4686193      60.810066      179.03406      2077.3778      13430.608    
      8000   278.17266      1.7008271      44.399796      149.74811     -1398.1568      13430.608    
      9000   267.07369      4.4160241      49.692722      153.62074     -1122.5328      13394.111    
     10000   297.1912       1.5916076      45.925476      158.2509      -853.89156      16491.736    
     11000   311.53931      0.90054565     55.82021       172.80069      259.52803      16143.605    
     12000   288.00045      3.1851815      42.493194      152.98771     -970.83015      16143.605    
     13000   346.95096      3.3530872      52.252819      184.88027      987.46962      15808.963    
     14000   279.07049      0.50738893     51.669999      156.1594      -1442.0036      15443.952    
     15000   295.78357      1.720648       54.196244      166.12622     -733.78355      15443.952    
     16000   304.01252      1.621795       47.15066       162.0479      -413.89745      15127.387    
     17000   312.13057      1.3797064      48.207537      165.88749      2486.5364      13605.145    
     18000   305.10572      1.5879326      44.018673      159.28938     -307.95676      14600.31     
     19000   277.68646      2.6385273      45.855193      151.96004      897.32585      15479.233    
     20000   291.70724      3.7501985      50.994527      163.43521      570.68345      15515.598    
     21000   275.41068      1.7176304      47.931848      152.26784     -1315.3914      15002.061    
     22000   292.15623      2.825853       46.177385      157.86101      980.83868      15002.061    
     23000   327.7114       5.898546       47.651624      175.65585      958.73086      15002.061    
     24000   287.97352      1.6484233      47.465998      156.41372     -566.3861       15954.585    
     25000   279.61085      1.3304702      53.908206      159.42203     -1360.3032      14759.134    
     26000   274.65412      1.0162966      43.642849      146.99562     -865.11303      15789.909    
     27000   315.86365      2.0058219      46.194287      165.8913      -350.46232      16855.363    
     28000   311.7427       0.45430664     48.575499      165.18553     -582.09231      15259.341    
     29000   285.74232      1.7938037      50.591894      158.85364      328.9847       17151.225    
     30000   265.8231       2.3147623      48.203392      149.56417      428.83285      17151.225    
     31000   301.82741      0.89675463     49.415258      162.77329     -720.91075      17151.225    
     32000   294.15809      2.0362382      49.921799      161.56171     -712.46664      15024.012    
     33000   320.11964      3.187594       50.201297      172.66587      247.14192      15201.583    
     34000   318.11436      2.0911646      46.475975      167.09695     -290.24273      14165.701    
     35000   334.42718      4.9438698      40.965625      170.51748      780.71697      14708.032    
     36000   319.27334      2.34352        45.04197       166.34714      104.58506      17111.987    
     37000   329.39575      2.0662688      50.907564      175.7071       785.28158      15813.056    
     38000   318.82445      0.80940354     55.917188      175.52098     -1804.2268      16601.824    
     39000   308.6146       1.8189292      35.731483      152.5406      -1217.13        16601.824    
     40000   263.65854      1.7922695      42.478089      142.50986     -733.56303      15574.042    
     41000   308.39541      0.64573267     49.816123      165.37037     -116.78611      14519.266    
     42000   298.03387      3.7645379      43.666064      158.4784       1336.0104      14002.765    
     43000   295.47967      2.9243891      53.438389      166.45887     -742.43819      14002.765    
     44000   299.39333      0.5073995      56.420667      168.4824       476.78586      14884.939    
     45000   330.66069      1.560211       36.016313      160.78111     -230.25798      13310.003    
     46000   288.97863      1.3492472      55.954809      164.97786      295.88519      13310.003    
     47000   286.71679      3.8130145      59.55186       170.19591     -736.00445      14498.595    
     48000   308.26647      2.7758625      48.740895      166.37723      737.28316      13846.759    
     49000   290.90358      2.3855773      45.487806      156.26442     -2080.2044      13698.563    
     50000   281.02328      1.9980725      51.148186      157.85589     -929.71897      14831.844    
     51000   278.43764      0.33850929     54.119201      158.20393     -1106.4821      13130.602    
     52000   287.32129      0.12954514     49.889039      157.07486      1690.2992      13356.884    
     53000   319.43986      2.3236349      50.368105      171.71543      1356.6713      10909.025    
     54000   324.01788      3.968254       53.170251      177.86798      1200.1056      11631.302    
     55000   299.33957      2.5260258      46.954021      161.01434      2737.2987      11631.302    
     56000   307.42928      1.9168102      61.36947       177.83482     -732.81596      10685.692    
     57000   304.86304      3.8546277      42.635483      160.08246      1704.1975      11076.54     
     58000   276.37145      4.2278124      49.362122      156.56628      536.30695      12027.867    
     59000   312.59625      1.7600174      44.56084       162.79461      197.34275      11129.772    
     60000   299.23907      0.44314901     48.971322      160.91132      49.718581      11209.962    
     61000   311.57712      1.7758272      49.950396      167.82025     -1357.6973      11821.222    
     62000   300.21561      1.7614481      53.30433       166.92649      408.61188      12695.362    
     63000   265.01984      1.0266558      51.818099      151.59148     -2177.0863      13006.952    
     64000   322.83736      2.4948898      41.043286      163.82778      1244.4564      12559.68     
     65000   283.02403      7.9446105      51.880754      165.28047     -229.77841      13948.072    
     66000   292.74962      0.53046832     53.884249      163.49359      1433.9375      11824.586    
     67000   318.07002      2.4512106      51.898599      172.8631       920.95383      12999.773    
     68000   327.9814       3.2947954      46.820236      172.32131      1128.0924      12999.773    
     69000   256.34706      2.0218107      49.86056       147.39761     -891.36981      10594.149    
     70000   308.2583       1.6367051      50.831787      167.32592      1456.3178      9356.749     
     71000   263.41133      4.5257099      48.014597      150.6877      -297.66311      10671.084    
     72000   316.74979      1.2992921      52.794911      172.11557     -662.33797      10298.581    
     73000   288.91122      1.7877036      43.606702      153.04309     -844.73643      9672.846     
     74000   301.08161      2.1596898      46.668387      161.01146      1030.6555      9691.7878    
     75000   328.17522      3.8045547      39.87351       165.95657     -121.65938      8895.9773    
     76000   301.92968      4.8577353      47.697427      165.05454     -913.52378      8856.8653    
     77000   276.16526      2.0771922      47.683572      152.66029      2428.1771      9874.0706    
     78000   310.2187       5.3405103      50.536117      171.46451     -1850.5337      9807.359     
     79000   312.72644      1.2956263      50.885425      168.70332     -837.09787      11176.346    
     80000   296.0445       0.83511033     45.022217      156.16388     -112.78894      9888.0184    
     81000   293.43766      3.7803         54.995084      168.11062      2828.1816      10517.128    
     82000   316.90738      1.9170933      41.301616      161.2988      -196.16964      13759.485    
     83000   274.17686      2.6751127      43.000433      147.83419     -1515.185       12799.145    
     84000   333.05201      3.3653116      49.381114      176.84202      184.83586      13560.697    
     85000   312.92137      2.0920963      38.493337      157.18033      573.00184      12078.713    
     86000   316.9642       2.7307216      39.134686      159.96667     -582.75363      14414.85     
     87000   302.55133      2.8883412      46.555644      162.17499     -1791.0452      12974.722    
     88000   284.63996      3.1599209      53.01909       162.23622     -1156.0978      9348.1326    
     89000   293.70123      0.19437562     45.923983      155.5518      -755.34525      9263.4318    
     90000   319.67583      5.1509046      55.17751       179.44003      186.26757      8161.0977    
     91000   260.30707      2.9526672      37.752783      137.69619      73.602032      8820.2006    
     92000   314.23708      2.1113198      42.033446      161.2299      -1314.6993      8820.2006    
     93000   289.90444      2.6029571      40.857475      151.47919      429.71506      8820.2006    
     94000   337.69158      2.6982883      45.206525      173.72912     -1629.8587      7958.3713    
     95000   287.29172      0.16141948     42.725506      149.93218     -1974.8718      7958.3713    
     96000   310.62368      1.0708034      40.566048      157.37563     -2353.3689      8899.4997    
     97000   289.16677      1.7621104      46.310486      155.8165       1005.1941      9656.6227    
     98000   275.11951      1.0077291      56.670579      160.18818      231.98861      10805.226    
     99000   300.60088      0.13756697     41.132244      153.27408     -169.43488      10805.226    
    100000   272.18645      1.9515708      52.843728      156.21231      308.80745      10552.468    
    101000   287.84716      5.3738695      47.87674       160.50282     -2011.8502      9961.1793    
    102000   272.77536      0.77738614     48.62135       151.03518     -295.23735      11789.308    
    103000   378.22755      2.7754724      49.919815      193.62335     -210.65497      11041.423    
    104000   276.82007      2.7660061      45.858227      151.76774      138.98215      12295.844    
    105000   321.10829      1.3228972      46.946276      167.91453      494.68856      12787.234    
    106000   261.60373      3.1089674      43.140384      143.72323     -1806.3222      12809.754    
    107000   308.32255      1.9306988      44.861672      161.67374     -111.81583      11965.984    
    108000   317.16791      1.97558        40.641493      160.79423     -4.3590127      11807.367    
    109000   318.98291      1.7958787      41.612606      162.26192     -407.26218      11807.367    
    110000   317.23738      0.20531335     45.878896      164.28725      1333.5781      12582.218    
    111000   290.9924       1.5722289      43.49953       153.49589     -10.997841      13383.289    
    112000   311.61142      1.5868657      53.453451      171.14712      858.64586      13358.384    
    113000   280.43391      0.98078567     44.812915      150.28373     -434.09458      13353.122    
    114000   261.12535      3.6020966      49.516254      150.41398      275.50246      13977.851    
    115000   325.21304      0.45573812     50.975695      172.60622     -330.30649      14592.258    
    116000   256.26421      0.73690952     46.379906      142.60118     -982.80144      13332.34     
    117000   332.5192       0.98389499     54.602355      179.48332      1220.4157      12447.11     
    118000   320.38931      1.964323       56.011285      177.35307      1214.0783      12956.774    
    119000   269.7112       1.3854076      47.153079      149.03322     -1369.2985      13018.912    
    120000   350.36006      0.49227012     48.531684      179.56855      213.16636      12410.054    
    121000   288.52006      5.2611641      44.43079       157.19489      1223.1108      12742.535    
    122000   332.23699      3.1780724      43.85194       170.82193      731.06639      13983.216    
    123000   341.00778      1.5738574      43.771681      172.40547     -792.20652      12246.559    
    124000   336.45987      1.9636554      40.973617      168.30264      1847.8445      12246.559    
    125000   294.92359      2.1923044      45.769959      157.85116      77.632559      13362.062    
    126000   287.834        1.7239111      48.951938      157.92316      713.0345       14128.24     
    127000   315.20135      1.4647885      41.388192      160.2974      -1295.0807      14128.24     
    128000   309.55823      1.6717737      45.991583      163.00514     -1194.9479      14422.928    
    129000   297.18847      2.2731933      43.957804      156.9638      -1249.8245      15083.64     
    130000   300.74313      1.1601401      44.326705      157.54411      1322.8039      13505.789    
Loop time of 39.194 on 1 procs for 130000 steps with 126 atoms

Performance: 573.149 ns/day, 0.042 hours/ns, 3316.836 timesteps/s, 417.921 katom-step/s
98.1% CPU use with 1 MPI tasks x no OpenMP threads

MPI task timing breakdown:
Section |  min time  |  avg time  |  max time  |%varavg| %total
---------------------------------------------------------------
Pair    | 3.2292     | 3.2292     | 3.2292     |   0.0 |  8.24
Bond    | 0.29306    | 0.29306    | 0.29306    |   0.0 |  0.75
Neigh   | 0.019746   | 0.019746   | 0.019746   |   0.0 |  0.05
Comm    | 0.011024   | 0.011024   | 0.011024   |   0.0 |  0.03
Output  | 0.01188    | 0.01188    | 0.01188    |   0.0 |  0.03
Modify  | 35.566     | 35.566     | 35.566     |   0.0 | 90.74
Other   |            | 0.06306    |            |       |  0.16

Nlocal:            126 ave         126 max         126 min
Histogram: 1 0 0 0 0 0 0 0 0 0
Nghost:              0 ave           0 max           0 min
Histogram: 1 0 0 0 0 0 0 0 0 0
Neighs:           4411 ave        4411 max        4411 min
Histogram: 1 0 0 0 0 0 0 0 0 0

Total # of neighbors = 4411
Ave neighs/atom = 35.007937
Ave special neighs/atom = 2.6031746
Neighbor list builds = 144
Dangerous builds = 0
Total wall time: 0:00:39
